NAME          BLANK   
ROWS
 N  OBJROW
 L  R0000000
COLUMNS
    C0000000  OBJROW     -598.         R0000000  782.        
    C0000001  OBJROW     -829.         R0000000  133.        
    C0000002  OBJROW     -822.         R0000000  147.        
    C0000003  OBJROW     -1000.        R0000000  103.        
    C0000004  OBJROW     -189.         R0000000  705.        
    C0000005  OBJROW     -935.         R0000000  360.        
    C0000006  OBJROW     -771.         R0000000  290.        
    C0000007  OBJROW     -879.         R0000000  625.        
    C0000008  OBJROW     -963.         R0000000  594.        
    C0000009  OBJROW     -720.         R0000000  881.        
    C0000010  OBJROW     -133.         R0000000  584.        
RHS
    RHS       R0000000  15551.      
BOUNDS
 BV BOUND     C0000000  1.          
 BV BOUND     C0000001  1.          
 BV BOUND     C0000002  1.          
 BV BOUND     C0000003  1.          
 BV BOUND     C0000004  1.          
 BV BOUND     C0000005  1.          
 BV BOUND     C0000006  1.          
 BV BOUND     C0000007  1.          
 BV BOUND     C0000008  1.          
 BV BOUND     C0000009  1.          
 BV BOUND     C0000010  1.          
ENDATA
